\ LP format - for model browsing. Use MPS format to capture full model detail.
Maximize
obj:   x[1] + x[133] + x[102] + x[93] + x[73] + x[10] + x[11] + x[142] + x[15]
   + x[114] + x[74] + x[21] + x[22] + x[170] + x[152] + x[153] + x[58]
   + x[127] + x[28] + x[125] + x[126] + x[37] + x[2] + x[32] + x[66]
   + x[67] + x[164] + x[86] + x[8] + x[77] + x[110] + x[109] + x[155]
   + x[49] + x[131] + x[116] + x[150] + x[88] + x[154] + x[91] + x[3]
   + x[160] + x[34] + x[6] + x[171] + x[44] + x[84] + x[30] + x[121]
   + x[20] + x[124] + x[61] + x[62] + x[4] + x[132] + x[17] + x[168]
   + x[169] + x[162] + x[174] + x[175] + x[147] + x[117] + x[119] + x[55]
   + x[123] + x[159] + x[5] + x[57] + x[40] + x[41] + x[106] + x[139]
   + x[46] + x[16] + x[146] + x[53] + x[89] + x[92] + x[138] + x[23]
   + x[134] + x[79] + x[83] + x[90] + x[7] + x[129] + x[13] + x[47]
   + x[115] + x[24] + x[27] + x[35] + x[36] + x[9] + x[161] + x[137]
   + x[43] + x[98] + x[45] + x[149] + x[111] + x[157] + x[18] + x[25]
   + x[165] + x[166] + x[167] + x[87] + x[97] + x[118] + x[136] + x[38]
   + x[135] + x[108] + x[85] + x[56] + x[158] + x[95] + x[12] + x[33]
   + x[48] + x[72] + x[80] + x[107] + x[144] + x[104] + x[19] + x[163]
   + x[140] + x[173] + x[14] + x[64] + x[68] + x[82] + x[52] + x[151]
   + x[143] + x[112] + x[122] + x[94] + x[63] + x[141] + x[29] + x[54]
   + x[60] + x[100] + x[105] + x[26] + x[39] + x[101] + x[99] + x[113]
   + x[81] + x[156] + x[128] + x[59] + x[70] + x[71] + x[76] + x[78]
   + x[145] + x[75] + x[50] + x[31] + x[148] + x[96] + x[65] + x[69]
   + x[42] + x[103] + x[172] + x[130] + x[51] + x[120]
Subject To
 nod1: 11 x[1] + x[133] + x[102] + x[93] + x[73] + x[10] + x[11] + x[142]
   + x[15] + x[114] + x[74] + x[21] + x[22] + x[170] + x[152] + x[153]
   + x[58] + x[127] + x[28] + x[125] + x[126] + x[37] <= 11
 nod133: x[1] + 12 x[133] + x[74] + x[49] + x[150] + x[44] + x[84] + x[20]
   + x[62] + x[7] + x[24] + x[35] + x[9] + x[158] + x[173] + x[141] + x[76]
   + x[148] <= 12
 nod102: x[1] + 9 x[102] + x[22] + x[77] + x[16] + x[138] + x[111] + x[136]
   + x[104] + x[173] + x[64] + x[112] + x[128] + x[120] <= 9
 nod93: x[1] + 8 x[93] + x[153] + x[77] + x[117] + x[119] + x[7] + x[24]
   + x[165] + x[12] + x[82] + x[69] <= 8
 nod73: x[1] + 9 x[73] + x[10] + x[11] + x[170] + x[153] + x[91] + x[160]
   + x[41] + x[16] + x[92] + x[129] + x[35] + x[144] + x[14] + x[68]
   + x[105] + x[99] <= 9
 nod10: x[1] + x[73] + 15 x[10] + x[21] + x[170] + x[2] + x[8] + x[49]
   + x[131] + x[91] + x[6] + x[171] + x[174] + x[175] + x[147] + x[40]
   + x[41] + x[16] + x[23] + x[149] + x[18] + x[25] + x[165] + x[166]
   + x[167] + x[87] + x[97] + x[118] + x[136] <= 15
 nod11: x[1] + x[73] + 10 x[11] + x[170] + x[125] + x[32] + x[139] + x[138]
   + x[25] + x[165] + x[38] + x[135] + x[108] + x[85] + x[56] + x[158]
   + x[95] <= 10
 nod142: x[1] + 11 x[142] + x[28] + x[150] + x[61] + x[123] + x[106]
   + x[139] + x[43] + x[157] + x[18] + x[38] + x[12] + x[80] + x[104]
   + x[68] + x[54] + x[172] + x[130] + x[51] <= 11
 nod15: x[1] + 12 x[15] + x[170] + x[160] + x[171] + x[121] + x[123]
   + x[115] + x[9] + x[43] + x[118] + x[12] + x[104] + x[19] + x[52]
   + x[143] + x[112] + x[122] + x[94] + x[63] <= 12
 nod114: x[1] + 11 x[114] + x[125] + x[86] + x[121] + x[98] + x[166]
   + x[97] + x[95] + x[104] + x[52] + x[151] + x[143] + x[112] + x[60]
   + x[105] + x[128] + x[78] <= 11
 nod74: x[1] + x[133] + 10 x[74] + x[127] + x[125] + x[66] + x[88] + x[119]
   + x[123] + x[16] + x[92] + x[7] + x[111] + x[135] + x[158] + x[140]
   + x[94] + x[65] + x[42] <= 10
 nod21: x[1] + x[10] + 10 x[21] + x[125] + x[37] + x[131] + x[106] + x[115]
   + x[45] + x[167] + x[94] + x[141] + x[29] + x[100] + x[26] + x[59]
   + x[78] + x[145] <= 10
 nod22: x[1] + x[102] + 14 x[22] + x[49] + x[124] + x[62] + x[117] + x[159]
   + x[167] + x[136] + x[38] + x[33] + x[19] + x[122] + x[54] + x[105]
   + x[99] + x[75] + x[50] + x[31] <= 14
 nod170: x[1] + x[73] + x[10] + x[11] + x[15] + 8 x[170] + x[66] + x[160]
   + x[17] + x[57] + x[106] + x[36] + x[45] + x[87] + x[108] + x[12]
   + x[143] + x[78] <= 8
 nod152: x[1] + 11 x[152] + x[127] + x[28] + x[2] + x[155] + x[88] + x[154]
   + x[160] + x[30] + x[17] + x[123] + x[5] + x[38] + x[101] + x[70]
   + x[71] <= 11
 nod153: x[1] + x[93] + x[73] + 11 x[153] + x[77] + x[109] + x[34] + x[124]
   + x[175] + x[138] + x[35] + x[137] + x[43] + x[98] + x[45] + x[149]
   + x[97] + x[14] + x[105] + x[39] + x[128] + x[76] <= 11
 nod58: x[1] + 10 x[58] + x[126] + x[155] + x[124] + x[159] + x[5] + x[106]
   + x[92] + x[90] + x[24] + x[9] + x[95] + x[140] + x[39] + x[145]
   + x[103] + x[172] <= 10
 nod127: x[1] + x[74] + x[152] + 10 x[127] + x[28] + x[67] + x[160]
   + x[175] + x[139] + x[134] + x[83] + x[47] + x[25] + x[108] + x[70]
   + x[148] <= 10
 nod28: x[1] + x[142] + x[152] + x[127] + 13 x[28] + x[37] + x[67] + x[164]
   + x[168] + x[117] + x[123] + x[40] + x[92] + x[35] + x[45] + x[111]
   + x[104] + x[60] + x[100] + x[105] + x[99] + x[156] + x[31] <= 13
 nod125: x[1] + x[11] + x[114] + x[74] + x[21] + 10 x[125] + x[126] + x[66]
   + x[109] + x[171] + x[117] + x[9] + x[111] + x[64] + x[82] + x[94]
   + x[39] + x[128] <= 10
 nod126: x[1] + x[58] + x[125] + 11 x[126] + x[67] + x[86] + x[84] + x[30]
   + x[17] + x[117] + x[111] + x[108] + x[107] + x[68] + x[26] + x[50]
   + x[103] + x[130] <= 11
 nod37: x[1] + x[21] + x[28] + 11 x[37] + x[32] + x[77] + x[155] + x[150]
   + x[88] + x[121] + x[55] + x[57] + x[89] + x[9] + x[149] + x[118]
   + x[136] + x[95] + x[12] + x[48] + x[59] <= 11
 nod2: x[10] + x[152] + 12 x[2] + x[32] + x[66] + x[67] + x[164] + x[86]
   + x[8] + x[77] + x[110] + x[109] + x[155] + x[49] + x[131] + x[116]
   + x[150] + x[88] + x[154] + x[91] <= 12
 nod32: x[11] + x[37] + x[2] + 9 x[32] + x[155] + x[121] + x[17] + x[117]
   + x[139] + x[134] + x[83] + x[9] + x[98] + x[108] + x[64] + x[42] <= 9
 nod66: x[74] + x[170] + x[125] + x[2] + 13 x[66] + x[34] + x[4] + x[162]
   + x[89] + x[138] + x[9] + x[43] + x[45] + x[97] + x[72] + x[80] + x[144]
   + x[100] + x[26] + x[70] + x[78] + x[69] <= 13
 nod67: x[127] + x[28] + x[126] + x[2] + 9 x[67] + x[154] + x[84] + x[168]
   + x[46] + x[89] + x[92] + x[79] + x[45] + x[108] + x[72] + x[64] + x[94]
   + x[42] <= 9
 nod164: x[28] + x[2] + 11 x[164] + x[109] + x[44] + x[30] + x[162]
   + x[174] + x[53] + x[92] + x[36] + x[158] + x[72] + x[80] + x[52]
   + x[60] + x[100] + x[113] + x[65] <= 11
 nod86: x[114] + x[126] + x[2] + 8 x[86] + x[109] + x[44] + x[40] + x[45]
   + x[12] + x[144] + x[120] <= 8
 nod8: x[10] + x[2] + 8 x[8] + x[131] + x[150] + x[160] + x[84] + x[46]
   + x[16] + x[53] + x[138] + x[129] + x[35] + x[36] <= 8
 nod77: x[102] + x[93] + x[153] + x[37] + x[2] + 12 x[77] + x[124] + x[41]
   + x[23] + x[79] + x[45] + x[107] + x[82] + x[63] + x[105] + x[65]
   + x[103] <= 12
 nod110: x[2] + 11 x[110] + x[49] + x[88] + x[6] + x[171] + x[132] + x[139]
   + x[134] + x[18] + x[165] + x[136] + x[33] + x[48] + x[72] + x[143]
   + x[122] + x[141] + x[50] + x[69] + x[42] <= 11
 nod109: x[153] + x[125] + x[2] + x[164] + x[86] + 11 x[109] + x[132]
   + x[147] + x[40] + x[139] + x[90] + x[129] + x[111] + x[97] + x[158]
   + x[173] + x[14] + x[64] + x[52] + x[112] + x[39] + x[99] + x[71]
   + x[96] + x[65] <= 11
 nod155: x[152] + x[58] + x[37] + x[2] + x[32] + 11 x[155] + x[162] + x[46]
   + x[161] + x[43] + x[98] + x[97] + x[107] + x[140] + x[68] + x[60]
   + x[31] + x[130] <= 11
 nod49: x[133] + x[10] + x[22] + x[2] + x[110] + 12 x[49] + x[20] + x[4]
   + x[168] + x[123] + x[115] + x[27] + x[56] + x[48] + x[163] + x[82]
   + x[29] + x[113] + x[65] + x[172] <= 12
 nod131: x[10] + x[21] + x[2] + x[8] + 11 x[131] + x[147] + x[7] + x[27]
   + x[36] + x[45] + x[97] + x[158] + x[12] + x[60] + x[81] + x[70]
   + x[103] <= 11
 nod116: x[2] + 9 x[116] + x[17] + x[168] + x[24] + x[111] + x[63] + x[105]
   + x[78] + x[145] + x[148] + x[42] + x[130] <= 9
 nod150: x[133] + x[142] + x[37] + x[2] + x[8] + 15 x[150] + x[34] + x[171]
   + x[124] + x[61] + x[132] + x[92] + x[79] + x[161] + x[43] + x[45]
   + x[12] + x[72] + x[107] + x[19] + x[141] + x[81] + x[65] + x[130]
   <= 15
 nod88: x[74] + x[152] + x[37] + x[2] + x[110] + 11 x[88] + x[4] + x[168]
   + x[57] + x[53] + x[138] + x[87] + x[85] + x[33] + x[19] + x[140]
   + x[94] + x[29] + x[65] <= 11
 nod154: x[152] + x[2] + x[67] + 12 x[154] + x[61] + x[62] + x[159] + x[41]
   + x[115] + x[161] + x[166] + x[105] + x[99] + x[81] + x[59] + x[75]
   + x[50] + x[148] + x[42] + x[130] <= 12
 nod91: x[73] + x[10] + x[2] + 12 x[91] + x[3] + x[30] + x[61] + x[168]
   + x[57] + x[40] + x[139] + x[138] + x[134] + x[13] + x[161] + x[43]
   + x[157] + x[87] + x[118] + x[104] + x[31] <= 12
 nod3: x[91] + 8 x[3] + x[160] + x[34] + x[6] + x[171] + x[44] + x[84]
   + x[30] + x[121] + x[20] + x[124] + x[61] + x[62] <= 8
 nod160: x[73] + x[15] + x[170] + x[152] + x[127] + x[8] + x[3] + 12 x[160]
   + x[34] + x[84] + x[62] + x[162] + x[57] + x[166] + x[135] + x[108]
   + x[33] + x[72] + x[14] + x[52] + x[99] + x[120] <= 12
 nod34: x[153] + x[66] + x[150] + x[3] + x[160] + 10 x[34] + x[84] + x[62]
   + x[132] + x[162] + x[16] + x[134] + x[7] + x[35] + x[149] + x[12]
   + x[163] + x[70] <= 10
 nod6: x[10] + x[110] + x[3] + 7 x[6] + x[61] + x[169] + x[16] + x[134]
   + x[79] + x[83] + x[90] <= 7
 nod171: x[10] + x[15] + x[125] + x[110] + x[150] + x[3] + 12 x[171] + x[4]
   + x[134] + x[13] + x[35] + x[36] + x[111] + x[85] + x[14] + x[112]
   + x[63] + x[128] + x[65] <= 12
 nod44: x[133] + x[164] + x[86] + x[3] + 14 x[44] + x[159] + x[92] + x[90]
   + x[47] + x[36] + x[43] + x[157] + x[25] + x[85] + x[163] + x[143]
   + x[29] + x[156] + x[103] <= 14
 nod84: x[133] + x[126] + x[67] + x[8] + x[3] + x[160] + x[34] + 11 x[84]
   + x[30] + x[124] + x[174] + x[139] + x[53] + x[23] + x[79] + x[36]
   + x[157] + x[166] + x[122] + x[148] <= 11
 nod30: x[152] + x[126] + x[164] + x[91] + x[3] + x[84] + 11 x[30] + x[62]
   + x[132] + x[57] + x[40] + x[16] + x[129] + x[13] + x[135] + x[80]
   + x[14] + x[101] + x[148] <= 11
 nod121: x[15] + x[114] + x[37] + x[32] + x[3] + 8 x[121] + x[62] + x[168]
   + x[57] + x[27] + x[95] + x[33] + x[80] + x[143] <= 8
 nod20: x[133] + x[49] + x[3] + 13 x[20] + x[62] + x[55] + x[57] + x[53]
   + x[27] + x[36] + x[43] + x[149] + x[157] + x[165] + x[135] + x[14]
   + x[101] + x[81] + x[128] + x[59] + x[70] + x[71] + x[76] <= 13
 nod124: x[22] + x[153] + x[58] + x[77] + x[150] + x[3] + x[84] + 12 x[124]
   + x[175] + x[147] + x[83] + x[27] + x[9] + x[137] + x[165] + x[87]
   + x[56] + x[68] + x[100] <= 12
 nod61: x[142] + x[150] + x[154] + x[91] + x[3] + x[6] + 11 x[61] + x[147]
   + x[123] + x[83] + x[18] + x[166] + x[97] + x[136] + x[82] + x[60]
   + x[39] + x[113] + x[59] + x[51] <= 11
 nod62: x[133] + x[22] + x[154] + x[3] + x[160] + x[34] + x[30] + x[121]
   + x[20] + 11 x[62] + x[79] + x[118] + x[56] + x[72] + x[104] + x[112]
   + x[156] + x[130] <= 11
 nod4: x[66] + x[49] + x[88] + x[171] + 11 x[4] + x[132] + x[17] + x[168]
   + x[169] + x[162] + x[174] + x[175] + x[147] + x[117] + x[119] + x[55]
   + x[123] + x[159] <= 11
 nod132: x[110] + x[109] + x[150] + x[34] + x[30] + x[4] + 11 x[132]
   + x[147] + x[134] + x[13] + x[97] + x[48] + x[72] + x[80] + x[144]
   + x[140] + x[173] + x[14] + x[112] + x[60] + x[128] + x[103] <= 11
 nod17: x[170] + x[152] + x[126] + x[32] + x[116] + x[4] + 14 x[17]
   + x[169] + x[162] + x[106] + x[46] + x[16] + x[129] + x[27] + x[25]
   + x[87] + x[95] + x[14] + x[64] + x[151] + x[105] + x[26] + x[39]
   + x[101] <= 14
 nod168: x[28] + x[67] + x[49] + x[116] + x[88] + x[91] + x[121] + x[4]
   + 13 x[168] + x[169] + x[174] + x[159] + x[41] + x[106] + x[53] + x[7]
   + x[115] + x[161] + x[167] + x[87] + x[72] + x[19] + x[140] + x[122]
   + x[65] <= 13
 nod169: x[6] + x[4] + x[17] + x[168] + 11 x[169] + x[55] + x[41] + x[36]
   + x[149] + x[136] + x[94] + x[63] + x[29] + x[113] + x[75] + x[69]
   <= 11
 nod162: x[66] + x[164] + x[155] + x[160] + x[34] + x[4] + x[17]
   + 10 x[162] + x[119] + x[40] + x[139] + x[134] + x[115] + x[144] + x[52]
   + x[143] + x[60] + x[99] <= 10
 nod174: x[10] + x[164] + x[84] + x[4] + x[168] + 11 x[174] + x[146]
   + x[138] + x[23] + x[35] + x[9] + x[108] + x[56] + x[107] + x[144]
   + x[64] + x[156] + x[59] <= 11
 nod175: x[10] + x[153] + x[127] + x[124] + x[4] + 9 x[175] + x[147]
   + x[106] + x[149] + x[48] + x[144] + x[64] + x[145] + x[50] + x[172]
   <= 9
 nod147: x[10] + x[109] + x[131] + x[124] + x[61] + x[4] + x[132] + x[175]
   + 13 x[147] + x[117] + x[5] + x[106] + x[139] + x[92] + x[23] + x[13]
   + x[47] + x[111] + x[25] + x[85] + x[80] + x[122] + x[105] + x[99]
   + x[145] <= 13
 nod117: x[93] + x[22] + x[28] + x[125] + x[126] + x[32] + x[4] + x[147]
   + 13 x[117] + x[159] + x[89] + x[47] + x[115] + x[98] + x[167] + x[94]
   + x[29] + x[128] + x[96] + x[65] + x[120] <= 13
 nod119: x[93] + x[74] + x[4] + x[162] + 6 x[119] + x[16] + x[134] + x[35]
   + x[85] + x[80] <= 6
 nod55: x[37] + x[20] + x[4] + x[169] + 9 x[55] + x[5] + x[41] + x[138]
   + x[161] + x[118] + x[135] + x[158] + x[144] + x[26] + x[70] + x[172]
   + x[120] <= 9
 nod123: x[142] + x[15] + x[74] + x[152] + x[28] + x[49] + x[61] + x[4]
   + 11 x[123] + x[24] + x[98] + x[25] + x[108] + x[72] + x[80] + x[52]
   + x[54] + x[70] + x[148] <= 11
 nod159: x[22] + x[58] + x[154] + x[44] + x[4] + x[168] + x[117]
   + 12 x[159] + x[57] + x[7] + x[129] + x[35] + x[18] + x[97] + x[135]
   + x[158] + x[68] + x[112] <= 12
 nod5: x[152] + x[58] + x[147] + x[55] + 9 x[5] + x[57] + x[40] + x[41]
   + x[106] + x[139] + x[46] + x[16] + x[146] + x[53] + x[89] + x[92]
   + x[138] + x[23] <= 9
 nod57: x[170] + x[37] + x[88] + x[91] + x[160] + x[30] + x[121] + x[20]
   + x[159] + x[5] + 13 x[57] + x[106] + x[16] + x[89] + x[92] + x[83]
   + x[118] + x[85] + x[80] + x[19] + x[64] + x[54] + x[172] <= 13
 nod40: x[10] + x[28] + x[86] + x[109] + x[91] + x[30] + x[162] + x[5]
   + 13 x[40] + x[7] + x[35] + x[43] + x[64] + x[143] + x[63] + x[99]
   + x[70] + x[78] + x[42] + x[103] <= 13
 nod41: x[73] + x[10] + x[77] + x[154] + x[168] + x[169] + x[55] + x[5]
   + 12 x[41] + x[106] + x[53] + x[23] + x[134] + x[7] + x[129] + x[24]
   + x[161] + x[95] + x[33] + x[80] + x[14] + x[100] + x[39] + x[81]
   + x[78] + x[96] <= 12
 nod106: x[142] + x[21] + x[170] + x[58] + x[17] + x[168] + x[175] + x[147]
   + x[5] + x[57] + x[41] + 12 x[106] + x[53] + x[47] + x[43] + x[167]
   + x[72] + x[80] + x[107] + x[140] + x[151] + x[99] + x[96] + x[69]
   <= 12
 nod139: x[11] + x[142] + x[127] + x[32] + x[110] + x[109] + x[91] + x[84]
   + x[162] + x[147] + x[5] + 16 x[139] + x[146] + x[89] + x[138] + x[129]
   + x[43] + x[18] + x[72] + x[19] + x[64] + x[94] + x[156] + x[71] + x[78]
   + x[145] + x[75] + x[65] + x[120] <= 16
 nod46: x[67] + x[8] + x[155] + x[17] + x[5] + 12 x[46] + x[83] + x[7]
   + x[137] + x[25] + x[136] + x[33] + x[140] + x[14] + x[143] + x[69]
   + x[172] <= 12
 nod16: x[102] + x[73] + x[10] + x[74] + x[8] + x[34] + x[6] + x[30]
   + x[17] + x[119] + x[5] + x[57] + 17 x[16] + x[89] + x[138] + x[83]
   + x[47] + x[45] + x[165] + x[166] + x[108] + x[33] + x[52] + x[94]
   + x[141] + x[29] + x[54] + x[60] + x[100] + x[105] <= 17
 nod146: x[174] + x[5] + x[139] + 8 x[146] + x[53] + x[134] + x[129]
   + x[111] + x[25] + x[158] + x[39] + x[81] + x[156] + x[65] + x[42] <= 8
 nod53: x[164] + x[8] + x[88] + x[84] + x[20] + x[168] + x[5] + x[41]
   + x[106] + x[146] + 10 x[53] + x[92] + x[115] + x[68] + x[122] + x[141]
   + x[130] <= 10
 nod89: x[37] + x[66] + x[67] + x[117] + x[5] + x[57] + x[139] + x[16]
   + 10 x[89] + x[92] + x[79] + x[137] + x[48] + x[122] + x[42] + x[103]
   + x[130] + x[51] <= 10
 nod92: x[73] + x[74] + x[58] + x[28] + x[67] + x[164] + x[150] + x[44]
   + x[147] + x[5] + x[57] + x[53] + x[89] + 12 x[92] + x[56] + x[143]
   + x[39] + x[128] + x[31] + x[65] + x[42] <= 12
 nod138: x[102] + x[11] + x[153] + x[66] + x[8] + x[88] + x[91] + x[174]
   + x[55] + x[5] + x[139] + x[16] + 12 x[138] + x[129] + x[166] + x[72]
   + x[64] + x[82] + x[26] + x[101] + x[70] <= 12
 nod23: x[10] + x[77] + x[84] + x[174] + x[147] + x[5] + x[41] + 11 x[23]
   + x[7] + x[12] + x[72] + x[82] + x[52] + x[112] + x[113] + x[81]
   + x[128] + x[71] + x[31] <= 11
 nod134: x[127] + x[32] + x[110] + x[91] + x[34] + x[6] + x[171] + x[132]
   + x[162] + x[119] + x[41] + x[146] + 14 x[134] + x[79] + x[7] + x[161]
   + x[45] + x[111] + x[135] + x[108] + x[95] + x[14] + x[143] + x[112]
   + x[100] + x[59] + x[145] <= 14
 nod79: x[67] + x[77] + x[150] + x[6] + x[84] + x[62] + x[89] + x[134]
   + 10 x[79] + x[24] + x[137] + x[45] + x[108] + x[173] + x[82] + x[112]
   + x[156] + x[70] + x[31] + x[51] <= 10
 nod83: x[127] + x[32] + x[6] + x[124] + x[61] + x[57] + x[46] + x[16]
   + 10 x[83] + x[137] + x[166] + x[97] + x[108] + x[56] + x[112] + x[75]
   <= 10
 nod90: x[58] + x[109] + x[6] + x[44] + 7 x[90] + x[111] + x[166] + x[87]
   + x[95] + x[52] + x[26] + x[70] + x[172] <= 7
 nod7: x[133] + x[93] + x[74] + x[131] + x[34] + x[168] + x[159] + x[40]
   + x[41] + x[46] + x[23] + x[134] + 11 x[7] + x[129] + x[13] + x[47]
   + x[115] + x[24] + x[27] <= 11
 nod129: x[73] + x[8] + x[109] + x[30] + x[17] + x[159] + x[41] + x[139]
   + x[146] + x[138] + x[7] + 12 x[129] + x[56] + x[33] + x[104] + x[173]
   + x[60] + x[105] + x[81] + x[75] + x[172] <= 12
 nod13: x[91] + x[171] + x[30] + x[132] + x[147] + x[7] + 7 x[13] + x[35]
   + x[98] + x[149] + x[140] + x[173] <= 7
 nod47: x[127] + x[44] + x[147] + x[117] + x[106] + x[16] + x[7] + 9 x[47]
   + x[25] + x[166] + x[56] + x[33] + x[104] + x[151] + x[122] + x[59]
   <= 9
 nod115: x[15] + x[21] + x[49] + x[154] + x[168] + x[162] + x[117] + x[53]
   + x[7] + 13 x[115] + x[45] + x[157] + x[80] + x[140] + x[26] + x[39]
   + x[128] + x[70] + x[78] + x[50] <= 13
 nod24: x[133] + x[93] + x[58] + x[116] + x[123] + x[41] + x[79] + x[7]
   + 11 x[24] + x[137] + x[87] + x[38] + x[108] + x[85] + x[63] + x[99]
   + x[148] <= 11
 nod27: x[49] + x[131] + x[121] + x[20] + x[124] + x[17] + x[7] + 10 x[27]
   + x[45] + x[97] + x[136] + x[72] + x[144] + x[101] + x[70] + x[71]
   + x[65] <= 10
 nod35: x[133] + x[73] + x[153] + x[28] + x[8] + x[34] + x[171] + x[174]
   + x[119] + x[159] + x[40] + x[13] + 10 x[35] + x[97] + x[85] + x[19]
   + x[141] + x[99] + x[59] <= 10
 nod36: x[170] + x[164] + x[8] + x[131] + x[171] + x[44] + x[84] + x[20]
   + x[169] + 9 x[36] + x[136] + x[33] + x[122] + x[63] + x[99] + x[31]
   <= 9
 nod9: x[133] + x[15] + x[58] + x[125] + x[37] + x[32] + x[66] + x[124]
   + x[174] + 11 x[9] + x[161] + x[137] + x[43] + x[98] + x[45] + x[149]
   + x[111] + x[157] <= 11
 nod161: x[155] + x[150] + x[154] + x[91] + x[168] + x[55] + x[41] + x[134]
   + x[9] + 11 x[161] + x[45] + x[118] + x[33] + x[48] + x[80] + x[54]
   + x[113] + x[120] <= 11
 nod137: x[153] + x[124] + x[46] + x[89] + x[79] + x[83] + x[24] + x[9]
   + 8 x[137] + x[18] + x[104] + x[122] + x[69] <= 8
 nod43: x[142] + x[15] + x[153] + x[66] + x[155] + x[150] + x[91] + x[44]
   + x[20] + x[40] + x[106] + x[139] + x[9] + 13 x[43] + x[25] + x[118]
   + x[108] + x[56] + x[48] + x[113] + x[59] <= 13
 nod98: x[114] + x[153] + x[32] + x[155] + x[117] + x[123] + x[13] + x[9]
   + 12 x[98] + x[149] + x[165] + x[136] + x[108] + x[95] + x[19] + x[63]
   + x[100] + x[113] + x[76] + x[172] <= 12
 nod45: x[21] + x[170] + x[153] + x[28] + x[66] + x[67] + x[86] + x[77]
   + x[131] + x[150] + x[16] + x[134] + x[79] + x[115] + x[27] + x[9]
   + x[161] + 16 x[45] + x[157] + x[18] + x[25] + x[87] + x[163] + x[14]
   + x[52] + x[29] + x[39] + x[99] + x[113] + x[128] + x[75] + x[50]
   + x[69] <= 16
 nod149: x[10] + x[153] + x[37] + x[34] + x[20] + x[169] + x[175] + x[13]
   + x[9] + x[98] + 12 x[149] + x[157] + x[97] + x[108] + x[72] + x[107]
   + x[68] + x[143] + x[141] + x[100] + x[59] + x[76] + x[42] <= 12
 nod111: x[102] + x[74] + x[28] + x[125] + x[126] + x[109] + x[116]
   + x[171] + x[147] + x[146] + x[134] + x[90] + x[9] + 14 x[111] + x[18]
   + x[165] + x[166] + x[52] + x[141] + x[100] + x[65] + x[69] + x[42]
   + x[51] <= 14
 nod157: x[142] + x[91] + x[44] + x[84] + x[20] + x[115] + x[9] + x[45]
   + x[149] + 11 x[157] + x[167] + x[87] + x[135] + x[19] + x[64] + x[50]
   + x[103] + x[120] <= 11
 nod18: x[10] + x[142] + x[110] + x[61] + x[159] + x[139] + x[137] + x[45]
   + x[111] + 12 x[18] + x[136] + x[108] + x[12] + x[107] + x[140] + x[29]
   + x[54] + x[99] + x[113] <= 12
 nod25: x[10] + x[11] + x[127] + x[44] + x[17] + x[147] + x[123] + x[46]
   + x[146] + x[47] + x[43] + x[45] + 10 x[25] + x[108] + x[85] + x[64]
   + x[143] + x[39] + x[81] + x[70] + x[50] <= 10
 nod165: x[93] + x[10] + x[11] + x[110] + x[20] + x[124] + x[16] + x[98]
   + x[111] + 15 x[165] + x[97] + x[72] + x[80] + x[104] + x[140] + x[141]
   + x[100] + x[81] + x[128] + x[59] + x[75] + x[50] + x[51] + x[120]
   <= 15
 nod166: x[10] + x[114] + x[154] + x[160] + x[84] + x[61] + x[16] + x[138]
   + x[83] + x[90] + x[47] + x[111] + 12 x[166] + x[85] + x[158] + x[33]
   + x[72] + x[29] + x[76] + x[69] <= 12
 nod167: x[10] + x[21] + x[22] + x[168] + x[117] + x[106] + x[157]
   + 7 x[167] + x[87] + x[136] + x[72] + x[140] + x[52] + x[143] + x[29]
   + x[42] <= 7
 nod87: x[10] + x[170] + x[88] + x[91] + x[124] + x[17] + x[168] + x[90]
   + x[24] + x[45] + x[157] + x[167] + 11 x[87] + x[95] + x[29] + x[81]
   + x[145] + x[31] + x[103] <= 11
 nod97: x[10] + x[114] + x[153] + x[66] + x[109] + x[155] + x[131] + x[61]
   + x[132] + x[159] + x[83] + x[27] + x[35] + x[149] + x[165] + 13 x[97]
   + x[95] + x[72] + x[82] + x[60] + x[156] + x[145] + x[96] + x[69]
   + x[172] <= 13
 nod118: x[10] + x[15] + x[37] + x[91] + x[62] + x[55] + x[57] + x[161]
   + x[43] + 12 x[118] + x[158] + x[107] + x[173] + x[82] + x[143] + x[63]
   + x[54] + x[26] + x[101] <= 12
 nod136: x[102] + x[10] + x[22] + x[37] + x[110] + x[61] + x[169] + x[46]
   + x[27] + x[36] + x[98] + x[18] + x[167] + 11 x[136] + x[173] + x[68]
   + x[143] + x[101] + x[50] <= 11
 nod38: x[11] + x[142] + x[22] + x[152] + x[24] + 8 x[38] + x[135] + x[108]
   + x[72] + x[144] + x[140] + x[94] <= 8
 nod135: x[11] + x[74] + x[160] + x[30] + x[20] + x[55] + x[159] + x[134]
   + x[157] + x[38] + 11 x[135] + x[56] + x[104] + x[52] + x[143] + x[94]
   + x[29] + x[59] + x[71] + x[50] <= 11
 nod108: x[11] + x[170] + x[127] + x[126] + x[32] + x[67] + x[160] + x[174]
   + x[123] + x[16] + x[134] + x[79] + x[83] + x[24] + x[43] + x[98]
   + x[149] + x[18] + x[25] + x[38] + 13 x[108] + x[112] + x[59] + x[96]
   <= 13
 nod85: x[11] + x[88] + x[171] + x[44] + x[147] + x[119] + x[57] + x[24]
   + x[35] + x[25] + x[166] + 11 x[85] + x[104] + x[105] + x[78] + x[75]
   + x[65] + x[69] + x[103] <= 11
 nod56: x[11] + x[49] + x[124] + x[62] + x[174] + x[92] + x[83] + x[129]
   + x[47] + x[43] + x[135] + 15 x[56] + x[48] + x[144] + x[104] + x[19]
   + x[140] + x[151] + x[122] + x[100] + x[76] + x[148] + x[96] <= 15
 nod158: x[133] + x[11] + x[74] + x[164] + x[109] + x[131] + x[55] + x[159]
   + x[146] + x[166] + x[118] + 13 x[158] + x[68] + x[141] + x[54] + x[113]
   + x[128] + x[96] + x[130] <= 13
 nod95: x[11] + x[114] + x[58] + x[37] + x[121] + x[17] + x[41] + x[134]
   + x[90] + x[98] + x[87] + x[97] + 10 x[95] + x[122] + x[100] + x[50]
   + x[96] + x[65] <= 10
 nod12: x[93] + x[142] + x[15] + x[170] + x[37] + x[86] + x[131] + x[150]
   + x[34] + x[23] + x[18] + 12 x[12] + x[33] + x[48] + x[72] + x[80]
   + x[107] + x[144] + x[104] + x[19] + x[163] <= 12
 nod33: x[22] + x[110] + x[88] + x[160] + x[121] + x[41] + x[46] + x[16]
   + x[129] + x[47] + x[36] + x[161] + x[166] + x[12] + 11 x[33] + x[105]
   + x[70] + x[76] + x[31] <= 11
 nod48: x[37] + x[110] + x[49] + x[132] + x[175] + x[89] + x[161] + x[43]
   + x[56] + x[12] + 12 x[48] + x[107] + x[143] + x[63] + x[141] + x[26]
   + x[113] + x[128] + x[75] + x[31] + x[69] + x[130] <= 12
 nod72: x[66] + x[67] + x[164] + x[110] + x[150] + x[160] + x[62] + x[132]
   + x[168] + x[123] + x[106] + x[139] + x[138] + x[23] + x[27] + x[149]
   + x[165] + x[166] + x[167] + x[97] + x[38] + x[12] + 16 x[72] + x[140]
   + x[143] + x[122] + x[105] + x[50] <= 16
 nod80: x[142] + x[66] + x[164] + x[30] + x[121] + x[132] + x[147] + x[119]
   + x[123] + x[57] + x[41] + x[106] + x[115] + x[161] + x[165] + x[12]
   + 13 x[80] + x[68] + x[112] + x[59] + x[172] <= 13
 nod107: x[126] + x[77] + x[155] + x[150] + x[174] + x[106] + x[149]
   + x[18] + x[118] + x[12] + x[48] + 11 x[107] + x[60] + x[31] + x[120]
   <= 11
 nod144: x[73] + x[66] + x[86] + x[132] + x[162] + x[174] + x[175] + x[55]
   + x[27] + x[38] + x[56] + x[12] + 11 x[144] + x[64] + x[151] + x[105]
   + x[39] + x[71] <= 11
 nod104: x[102] + x[142] + x[15] + x[114] + x[28] + x[91] + x[62] + x[129]
   + x[47] + x[137] + x[165] + x[135] + x[85] + x[56] + x[12] + 14 x[104]
   + x[112] + x[54] + x[60] + x[100] + x[148] <= 14
 nod19: x[15] + x[22] + x[150] + x[88] + x[168] + x[57] + x[139] + x[35]
   + x[98] + x[157] + x[56] + x[12] + 10 x[19] + x[63] + x[113] + x[81]
   + x[156] <= 10
 nod163: x[49] + x[34] + x[44] + x[45] + x[12] + 5 x[163] + x[64] + x[75]
   <= 5
 nod140: x[74] + x[58] + x[155] + x[88] + x[132] + x[168] + x[106] + x[46]
   + x[13] + x[115] + x[18] + x[165] + x[167] + x[38] + x[56] + x[72]
   + 11 x[140] + x[105] + x[42] + x[130] <= 11
 nod173: x[133] + x[102] + x[109] + x[132] + x[79] + x[129] + x[13]
   + x[118] + x[136] + 9 x[173] + x[52] + x[54] + x[39] + x[113] + x[81]
   + x[145] + x[148] + x[51] <= 9
 nod14: x[73] + x[153] + x[109] + x[160] + x[171] + x[30] + x[20] + x[132]
   + x[17] + x[41] + x[46] + x[134] + x[45] + 11 x[14] + x[64] + x[68]
   + x[82] + x[52] + x[151] <= 11
 nod64: x[102] + x[125] + x[32] + x[67] + x[109] + x[17] + x[174] + x[175]
   + x[57] + x[40] + x[139] + x[138] + x[157] + x[25] + x[144] + x[163]
   + x[14] + 13 x[64] + x[122] + x[75] + x[42] + x[103] <= 13
 nod68: x[73] + x[142] + x[126] + x[155] + x[124] + x[159] + x[53] + x[149]
   + x[136] + x[158] + x[80] + x[14] + 11 x[68] + x[94] + x[100] + x[156]
   + x[130] <= 11
 nod82: x[93] + x[125] + x[77] + x[49] + x[61] + x[138] + x[23] + x[79]
   + x[97] + x[118] + x[14] + 12 x[82] + x[52] + x[141] + x[113] + x[65]
   + x[42] + x[172] <= 12
 nod52: x[15] + x[114] + x[164] + x[109] + x[160] + x[162] + x[123] + x[16]
   + x[23] + x[90] + x[45] + x[111] + x[167] + x[135] + x[173] + x[14]
   + x[82] + 12 x[52] + x[143] + x[39] + x[156] + x[128] + x[59] + x[75]
   <= 12
 nod151: x[114] + x[17] + x[106] + x[47] + x[56] + x[144] + x[14]
   + 7 x[151] + x[26] + x[96] + x[69] + x[51] <= 7
 nod143: x[15] + x[114] + x[170] + x[110] + x[44] + x[121] + x[162] + x[40]
   + x[46] + x[92] + x[134] + x[149] + x[25] + x[167] + x[118] + x[136]
   + x[135] + x[48] + x[72] + x[52] + 16 x[143] + x[94] + x[141] + x[29]
   + x[60] + x[78] + x[96] + x[120] <= 16
 nod112: x[102] + x[15] + x[114] + x[109] + x[171] + x[62] + x[132]
   + x[159] + x[23] + x[134] + x[79] + x[83] + x[108] + x[80] + x[104]
   + 10 x[112] + x[65] + x[172] <= 10
 nod122: x[15] + x[22] + x[110] + x[84] + x[168] + x[147] + x[53] + x[89]
   + x[47] + x[36] + x[137] + x[56] + x[95] + x[72] + x[64] + 12 x[122]
   + x[78] + x[148] + x[103] + x[51] <= 12
 nod94: x[15] + x[74] + x[21] + x[125] + x[67] + x[88] + x[169] + x[117]
   + x[139] + x[16] + x[38] + x[135] + x[68] + x[143] + 11 x[94] + x[141]
   + x[128] + x[50] + x[65] <= 11
 nod63: x[15] + x[77] + x[116] + x[171] + x[169] + x[40] + x[24] + x[36]
   + x[98] + x[118] + x[48] + x[19] + 10 x[63] + x[101] + x[81] + x[71]
   + x[31] + x[69] <= 10
 nod141: x[133] + x[21] + x[110] + x[150] + x[16] + x[53] + x[35] + x[149]
   + x[111] + x[165] + x[158] + x[48] + x[82] + x[143] + x[94] + 12 x[141]
   + x[101] + x[76] + x[96] + x[69] + x[103] <= 12
 nod29: x[21] + x[49] + x[88] + x[44] + x[169] + x[117] + x[16] + x[45]
   + x[18] + x[166] + x[167] + x[87] + x[135] + x[143] + 10 x[29] + x[70]
   + x[50] + x[69] <= 10
 nod54: x[142] + x[22] + x[123] + x[57] + x[16] + x[161] + x[18] + x[118]
   + x[158] + x[104] + x[173] + 9 x[54] + x[76] + x[145] + x[42] <= 9
 nod60: x[114] + x[28] + x[164] + x[155] + x[131] + x[61] + x[132] + x[162]
   + x[16] + x[129] + x[97] + x[107] + x[104] + x[143] + 11 x[60] + x[113]
   + x[42] + x[130] <= 11
 nod100: x[21] + x[28] + x[66] + x[164] + x[124] + x[41] + x[16] + x[134]
   + x[98] + x[149] + x[111] + x[165] + x[56] + x[95] + x[104] + x[68]
   + 9 x[100] + x[105] + x[69] <= 9
 nod105: x[73] + x[114] + x[22] + x[153] + x[28] + x[77] + x[116] + x[154]
   + x[17] + x[147] + x[16] + x[129] + x[85] + x[33] + x[72] + x[144]
   + x[140] + x[100] + 12 x[105] + x[26] + x[99] + x[130] <= 12
 nod26: x[21] + x[126] + x[66] + x[17] + x[55] + x[138] + x[90] + x[115]
   + x[118] + x[48] + x[151] + x[105] + 8 x[26] + x[113] + x[70] + x[96]
   <= 8
 nod39: x[153] + x[58] + x[125] + x[109] + x[61] + x[17] + x[41] + x[146]
   + x[92] + x[115] + x[45] + x[25] + x[144] + x[173] + x[52] + 10 x[39]
   + x[128] + x[59] <= 10
 nod101: x[152] + x[30] + x[20] + x[17] + x[138] + x[27] + x[118] + x[136]
   + x[63] + x[141] + 8 x[101] + x[128] + x[145] <= 8
 nod99: x[73] + x[22] + x[28] + x[109] + x[154] + x[160] + x[162] + x[147]
   + x[40] + x[106] + x[24] + x[35] + x[36] + x[45] + x[18] + x[105]
   + 10 x[99] <= 10
 nod113: x[164] + x[49] + x[61] + x[169] + x[23] + x[161] + x[43] + x[98]
   + x[45] + x[18] + x[158] + x[48] + x[19] + x[173] + x[82] + x[60]
   + x[26] + 11 x[113] <= 11
 nod81: x[131] + x[150] + x[154] + x[20] + x[41] + x[146] + x[23] + x[129]
   + x[25] + x[165] + x[87] + x[19] + x[173] + x[63] + 10 x[81] + x[76]
   <= 10
 nod156: x[28] + x[44] + x[62] + x[174] + x[139] + x[146] + x[79] + x[97]
   + x[19] + x[68] + x[52] + 8 x[156] <= 8
 nod128: x[102] + x[114] + x[153] + x[125] + x[171] + x[20] + x[132]
   + x[117] + x[92] + x[23] + x[115] + x[45] + x[165] + x[158] + x[48]
   + x[52] + x[94] + x[39] + x[101] + 13 x[128] + x[145] + x[172] <= 13
 nod59: x[21] + x[37] + x[154] + x[20] + x[61] + x[174] + x[134] + x[47]
   + x[35] + x[43] + x[149] + x[165] + x[135] + x[108] + x[80] + x[52]
   + x[39] + 9 x[59] + x[76] <= 9
 nod70: x[152] + x[127] + x[66] + x[131] + x[34] + x[20] + x[55] + x[123]
   + x[40] + x[138] + x[79] + x[90] + x[115] + x[27] + x[25] + x[33]
   + x[29] + x[26] + 15 x[70] + x[76] + x[145] + x[31] + x[96] + x[130]
   <= 15
 nod71: x[152] + x[109] + x[20] + x[139] + x[23] + x[27] + x[135] + x[144]
   + x[63] + 6 x[71] + x[31] <= 6
 nod76: x[133] + x[153] + x[20] + x[98] + x[149] + x[166] + x[56] + x[33]
   + x[141] + x[54] + x[81] + x[59] + x[70] + 10 x[76] + x[78] + x[75]
   + x[42] <= 10
 nod78: x[114] + x[21] + x[170] + x[66] + x[116] + x[40] + x[41] + x[139]
   + x[115] + x[85] + x[143] + x[122] + x[76] + 10 x[78] + x[96] <= 10
 nod145: x[21] + x[58] + x[116] + x[175] + x[147] + x[139] + x[134] + x[87]
   + x[97] + x[173] + x[54] + x[101] + x[128] + x[70] + 11 x[145] + x[172]
   <= 11
 nod75: x[22] + x[154] + x[169] + x[139] + x[83] + x[129] + x[45] + x[165]
   + x[85] + x[48] + x[163] + x[64] + x[52] + x[76] + 11 x[75] <= 11
 nod50: x[22] + x[126] + x[110] + x[154] + x[175] + x[115] + x[45] + x[157]
   + x[25] + x[165] + x[136] + x[135] + x[95] + x[72] + x[94] + x[29]
   + 10 x[50] <= 10
 nod31: x[22] + x[28] + x[155] + x[91] + x[92] + x[23] + x[79] + x[36]
   + x[87] + x[33] + x[48] + x[107] + x[63] + x[70] + x[71] + 8 x[31] <= 8
 nod148: x[133] + x[127] + x[116] + x[154] + x[84] + x[30] + x[123] + x[24]
   + x[56] + x[104] + x[173] + x[122] + 8 x[148] <= 8
 nod96: x[109] + x[117] + x[41] + x[106] + x[97] + x[108] + x[56] + x[158]
   + x[95] + x[151] + x[143] + x[141] + x[26] + x[70] + x[78] + 9 x[96]
   + x[69] <= 9
 nod65: x[74] + x[164] + x[77] + x[109] + x[49] + x[150] + x[88] + x[171]
   + x[168] + x[117] + x[139] + x[146] + x[92] + x[27] + x[111] + x[85]
   + x[95] + x[82] + x[112] + x[94] + 11 x[65] <= 11
 nod69: x[93] + x[66] + x[110] + x[169] + x[106] + x[46] + x[137] + x[45]
   + x[111] + x[166] + x[97] + x[85] + x[48] + x[151] + x[63] + x[141]
   + x[29] + x[100] + x[96] + 9 x[69] <= 9
 nod42: x[74] + x[32] + x[67] + x[110] + x[116] + x[154] + x[40] + x[146]
   + x[89] + x[92] + x[149] + x[111] + x[167] + x[140] + x[64] + x[82]
   + x[54] + x[60] + x[76] + 13 x[42] <= 13
 nod103: x[58] + x[126] + x[77] + x[131] + x[44] + x[132] + x[40] + x[89]
   + x[157] + x[87] + x[85] + x[64] + x[122] + x[141] + 9 x[103] <= 9
 nod172: x[142] + x[58] + x[49] + x[175] + x[55] + x[57] + x[46] + x[90]
   + x[129] + x[98] + x[97] + x[80] + x[82] + x[112] + x[128] + x[145]
   + 12 x[172] <= 12
 nod130: x[142] + x[126] + x[155] + x[116] + x[150] + x[154] + x[62]
   + x[53] + x[89] + x[158] + x[48] + x[140] + x[68] + x[60] + x[105]
   + x[70] + 11 x[130] + x[120] <= 11
 nod51: x[142] + x[61] + x[89] + x[79] + x[111] + x[165] + x[173] + x[151]
   + x[122] + 5 x[51] <= 5
 nod120: x[102] + x[86] + x[160] + x[117] + x[55] + x[139] + x[161]
   + x[157] + x[165] + x[107] + x[143] + x[130] + 11 x[120] <= 11
Bounds
Binaries
 x[1] x[133] x[102] x[93] x[73] x[10] x[11] x[142] x[15] x[114] x[74] x[21]
 x[22] x[170] x[152] x[153] x[58] x[127] x[28] x[125] x[126] x[37] x[2]
 x[32] x[66] x[67] x[164] x[86] x[8] x[77] x[110] x[109] x[155] x[49]
 x[131] x[116] x[150] x[88] x[154] x[91] x[3] x[160] x[34] x[6] x[171]
 x[44] x[84] x[30] x[121] x[20] x[124] x[61] x[62] x[4] x[132] x[17] x[168]
 x[169] x[162] x[174] x[175] x[147] x[117] x[119] x[55] x[123] x[159] x[5]
 x[57] x[40] x[41] x[106] x[139] x[46] x[16] x[146] x[53] x[89] x[92]
 x[138] x[23] x[134] x[79] x[83] x[90] x[7] x[129] x[13] x[47] x[115] x[24]
 x[27] x[35] x[36] x[9] x[161] x[137] x[43] x[98] x[45] x[149] x[111]
 x[157] x[18] x[25] x[165] x[166] x[167] x[87] x[97] x[118] x[136] x[38]
 x[135] x[108] x[85] x[56] x[158] x[95] x[12] x[33] x[48] x[72] x[80]
 x[107] x[144] x[104] x[19] x[163] x[140] x[173] x[14] x[64] x[68] x[82]
 x[52] x[151] x[143] x[112] x[122] x[94] x[63] x[141] x[29] x[54] x[60]
 x[100] x[105] x[26] x[39] x[101] x[99] x[113] x[81] x[156] x[128] x[59]
 x[70] x[71] x[76] x[78] x[145] x[75] x[50] x[31] x[148] x[96] x[65] x[69]
 x[42] x[103] x[172] x[130] x[51] x[120]
End
